units si
atom_style granular
atom_modify sort 0 0.0
boundary f f f
newton off
region reg block -0.0012 0.0012 -0.0012 0.0012 -0.0012 0.0012 units box
create_box 1 reg
fix mesh_top all mesh/surface/stress file ../meshes/top_plate.stl type 1
run 0
