units si
atom_style granular
atom_modify map array
atom_modify sort 0 0.0
boundary f f f
newton off
communicate mode single vel yes
hard_particles yes
soft_particles yes

region reg block -0.0012 0.0012 -0.0012 0.0012 -0.0012 0.0012 units box
create_box 1 reg
neighbor 1.0e-4 bin
neigh_modify delay 0

fix m1 all property/global youngsModulus peratomtype 9.0e10
fix m2 all property/global poissonsRatio peratomtype 0.25
fix m3 all property/global coefficientRestitution peratomtypepair 1 0.3
fix m4 all property/global coefficientFriction peratomtypepair 1 0.5
fix b1 all property/global radiusMultiplierBond peratomtypepair 1 1.0
fix b2 all property/global normalBondStiffnessPerUnitArea peratomtypepair 1 1.0e14
fix b3 all property/global tangentialBondStiffnessPerUnitArea peratomtypepair 1 5.0e13
fix b4 all property/global maxSigmaBond peratomtypepair 1 5.0e7
fix b5 all property/global maxTauBond peratomtypepair 1 5.0e7
fix b6 all property/global dampingNormalForceBond peratomtypepair 1 0.0
fix b7 all property/global dampingTangentialForceBond peratomtypepair 1 0.0
fix b8 all property/global dampingNormalTorqueBond peratomtypepair 1 0.0
fix b9 all property/global dampingTangentialTorqueBond peratomtypepair 1 0.0
fix b10 all property/global tsCreateBond scalar 1.0
fix b11 all property/global createDistanceBond peratomtypepair 1 2.0e-4

pair_style gran model hertz tangential history cohesion bond stressBreak on createBondAlways off
pair_coeff * *

fix clump all particletemplate/multiplespheres 15485863 atom_type 1 density constant 2400 nspheres 500 ntry 10000000 spheres file ../data/li4sio4_sp_500_nooverlap.multisphere scale 1.0 bonded yes
create_particles clump single 0.0 0.0 0.0 velocity 0.0 0.0 0.0

fix mesh_bottom all mesh/surface/stress file ../meshes/bottom_plate.stl type 1
fix mesh_top all mesh/surface/stress file ../meshes/top_plate.stl type 1
fix wall_all all wall/gran model hertz tangential history cohesion bond mesh n_meshes 2 meshes mesh_bottom mesh_top stressBreak on createBondAlways off
fix move_top all move/mesh mesh mesh_top linear 0.0 0.0 -1.0e-4
fix integrate all nve/sphere
fix damp all viscous 0.02
fix ts all check/timestep/gran 1000 0.2 0.2
compute bond_status all bond/counter
variable top_disp equal 1.0e-4*time
variable top_force_z equal f_mesh_top[3]
variable bottom_force_z equal f_mesh_bottom[3]
variable bond_created equal c_bond_status[1]
variable bond_broken equal c_bond_status[2]
variable bond_intact equal c_bond_status[3]
thermo_style custom step atoms ke v_top_disp v_top_force_z v_bottom_force_z v_bond_created v_bond_broken v_bond_intact
thermo 1
fix print_load all print 1 "${step}, ${time}, ${top_disp}, ${top_force_z}, ${bottom_force_z}, ${bond_created}, ${bond_broken}, ${bond_intact}" file debug_load_curve.csv title "step,time_s,top_displacement_m,top_force_z_N,bottom_force_z_N,bond_created,bond_broken,bond_intact" screen no

timestep 5.0e-9
run 1
