echo            both
units           si
atom_style      granular
atom_modify     map array
boundary        f f f
newton          off
communicate     mode single vel yes

read_restart    post/seated_final.restart

thermo_style    custom step atoms ke
thermo          1
thermo_modify   lost ignore norm no flush yes
run             0
