# PB-007 stage C2: bonded transfer with in-run step-relaxed compression.
# This protocol avoids restart continuation and tests quasi-static force balance before damage.

echo            both
units           si
atom_style      granular
atom_modify     map array
atom_modify     sort 0 0.0
boundary        f f f
newton          off
communicate     mode single vel yes
processors      * * 1
hard_particles  yes
soft_particles  yes

variable        npebbles       index 100
variable        nspheres       index 500
variable        dt             index 5.0e-9
variable        rho            equal 2400.0
variable        young          index 5.0e6
variable        poisson        equal 0.25
variable        cor            equal 0.3
variable        mu             equal 0.5
variable        side_half      index 3.0e-3
variable        top_speed       index 2.0e-1
variable        stage_steps     index 5000
variable        increment_steps index 1000
variable        hold_steps      index 20000
variable        n_increments    index 5
variable        damp_coeff      index 2.0e-5
variable        bond_dump_every index 1000000000
variable        native_dump_every index 1000000000
variable        period_steps    equal ${increment_steps}+${hold_steps}

variable        rb_mult        equal 1.0
variable        kn_bond        index 1.0e14
variable        kt_bond        index 5.0e13
variable        sigma_bulk     index 9.0e7
variable        tau_bulk       index 9.0e7
variable        sigma_weak     index 2.25e7
variable        tau_weak       index 2.25e7
variable        create_dist    equal 2.00e-4
variable        create_weak    equal 9.00e-5

region          reg block -0.03 0.03 -0.03 0.03 -0.03 0.08 units box
create_box      3 reg

neighbor        1.0e-4 bin
neigh_modify    delay 0

fix             m1 all property/global youngsModulus peratomtype ${young} ${young} ${young}
fix             m2 all property/global poissonsRatio peratomtype ${poisson} ${poisson} ${poisson}
fix             m3 all property/global coefficientRestitution peratomtypepair 3 &
                ${cor} ${cor} ${cor} ${cor} ${cor} ${cor} ${cor} ${cor} ${cor}
fix             m4 all property/global coefficientFriction peratomtypepair 3 &
                ${mu} ${mu} ${mu} ${mu} ${mu} ${mu} ${mu} ${mu} ${mu}

fix             b1 all property/global radiusMultiplierBond peratomtypepair 3 &
                ${rb_mult} ${rb_mult} ${rb_mult} ${rb_mult} ${rb_mult} ${rb_mult} &
                ${rb_mult} ${rb_mult} ${rb_mult}
fix             b2 all property/global normalBondStiffnessPerUnitArea peratomtypepair 3 &
                ${kn_bond} ${kn_bond} ${kn_bond} ${kn_bond} ${kn_bond} ${kn_bond} &
                ${kn_bond} ${kn_bond} ${kn_bond}
fix             b3 all property/global tangentialBondStiffnessPerUnitArea peratomtypepair 3 &
                ${kt_bond} ${kt_bond} ${kt_bond} ${kt_bond} ${kt_bond} ${kt_bond} &
                ${kt_bond} ${kt_bond} ${kt_bond}
fix             b4 all property/global maxSigmaBond peratomtypepair 3 &
                ${sigma_bulk} ${sigma_weak} ${sigma_bulk} &
                ${sigma_weak} ${sigma_bulk} ${sigma_bulk} &
                ${sigma_bulk} ${sigma_bulk} ${sigma_bulk}
fix             b5 all property/global maxTauBond peratomtypepair 3 &
                ${tau_bulk} ${tau_weak} ${tau_bulk} &
                ${tau_weak} ${tau_bulk} ${tau_bulk} &
                ${tau_bulk} ${tau_bulk} ${tau_bulk}
fix             b6 all property/global dampingNormalForceBond peratomtypepair 3 &
                0.0 0.0 0.0 0.0 0.0 0.0 0.0 0.0 0.0
fix             b7 all property/global dampingTangentialForceBond peratomtypepair 3 &
                0.0 0.0 0.0 0.0 0.0 0.0 0.0 0.0 0.0
fix             b8 all property/global dampingNormalTorqueBond peratomtypepair 3 &
                0.0 0.0 0.0 0.0 0.0 0.0 0.0 0.0 0.0
fix             b9 all property/global dampingTangentialTorqueBond peratomtypepair 3 &
                0.0 0.0 0.0 0.0 0.0 0.0 0.0 0.0 0.0
fix             b10 all property/global tsCreateBond scalar 1.0
fix             b11 all property/global createDistanceBond peratomtypepair 3 &
                ${create_dist} ${create_weak} ${create_dist} &
                ${create_weak} ${create_dist} ${create_dist} &
                ${create_dist} ${create_dist} ${create_dist}

pair_style      gran model hertz tangential history cohesion bond stressBreak on createBondAlways off
pair_coeff      * *

fix             clump all particletemplate/multiplespheres 15485863 atom_type 1 &
                density constant ${rho} nspheres ${nspheres} ntry 10000000 &
                spheres_different_types file data/template.multisphere scale 1.0 bonded yes
include         data/create_pebbles_far.inc

fix             integrate all nve/sphere
fix             grav all gravity 9.81 vector 0.0 0.0 -1.0
fix             damp all viscous ${damp_coeff}
compute         bond_status all bond/counter
compute         bond_force all pair/gran/local/bond
compute         pair_contacts all pair/gran/local id force force_normal delta
fix             mesh_top all mesh/surface/stress file meshes/top_plate.stl type 3
fix             mesh_bottom all mesh/surface/stress file meshes/bottom_plate.stl type 3
fix             mesh_xlo all mesh/surface/stress file meshes/xlo_wall.stl type 3
fix             mesh_xhi all mesh/surface/stress file meshes/xhi_wall.stl type 3
fix             mesh_ylo all mesh/surface/stress file meshes/ylo_wall.stl type 3
fix             mesh_yhi all mesh/surface/stress file meshes/yhi_wall.stl type 3
fix             wall_all all wall/gran model hertz tangential history mesh &
                n_meshes 6 meshes mesh_top mesh_bottom mesh_xlo mesh_xhi mesh_ylo mesh_yhi
compute         wall_contacts all wall/gran/local id force force_normal delta

timestep        ${dt}
run             1
include         data/move_pebbles_to_pack.inc

variable        top_disp equal 0.0
variable        top_force equal f_mesh_top[3]
variable        bottom_force equal f_mesh_bottom[3]
variable        side_force equal f_mesh_xlo[3]+f_mesh_xhi[3]+f_mesh_ylo[3]+f_mesh_yhi[3]
variable        all_wall_force equal f_mesh_top[3]+f_mesh_bottom[3]+v_side_force
variable        bond_created equal c_bond_status[1]
variable        bond_broken equal c_bond_status[2]
variable        bond_intact equal c_bond_status[3]

thermo_style    custom step atoms ke v_top_disp v_top_force v_bottom_force &
                v_side_force v_all_wall_force &
                v_bond_created v_bond_broken v_bond_intact
thermo          100
thermo_modify   lost ignore norm no flush yes

dump            particles all custom 10000 post/particles_*.dump id type x y z vx vy vz radius
dump_modify     particles pad 8 first yes

run             ${stage_steps}

dump            bonds_event all local ${bond_dump_every} post/bonds_event_*.local c_bond_force[7] c_bond_force[8]
dump            pairs_event all local ${native_dump_every} post/pairs_event_*.local &
                c_pair_contacts[1] c_pair_contacts[2] c_pair_contacts[3] &
                c_pair_contacts[4] c_pair_contacts[5] c_pair_contacts[6] &
                c_pair_contacts[7] c_pair_contacts[8] c_pair_contacts[9] c_pair_contacts[10]
dump            walls_event all local ${native_dump_every} post/walls_event_*.local &
                c_wall_contacts[1] c_wall_contacts[2] c_wall_contacts[3] &
                c_wall_contacts[4] c_wall_contacts[5] c_wall_contacts[6] &
                c_wall_contacts[7] c_wall_contacts[8] c_wall_contacts[9] c_wall_contacts[10]

variable        load_i loop ${n_increments}
label           load_loop
fix             move_top all move/mesh mesh mesh_top linear 0.0 0.0 -${top_speed}
run             ${increment_steps}
unfix           move_top
variable        top_disp delete
variable        top_disp equal ${load_i}*${top_speed}*${dt}*${increment_steps}
run             ${hold_steps}
next            load_i
jump            SELF load_loop

write_dump      all custom post/particles_final.dump id type x y z vx vy vz radius
dump            bonds_final all local 1 post/bonds_final.local c_bond_force[7] c_bond_force[8]
dump            pairs all local 1 post/pairs_final.local &
                c_pair_contacts[1] c_pair_contacts[2] c_pair_contacts[3] &
                c_pair_contacts[4] c_pair_contacts[5] c_pair_contacts[6] &
                c_pair_contacts[7] c_pair_contacts[8] c_pair_contacts[9] c_pair_contacts[10]
dump            walls all local 1 post/walls_final.local &
                c_wall_contacts[1] c_wall_contacts[2] c_wall_contacts[3] &
                c_wall_contacts[4] c_wall_contacts[5] c_wall_contacts[6] &
                c_wall_contacts[7] c_wall_contacts[8] c_wall_contacts[9] c_wall_contacts[10]
run             0
write_restart   post/seated_final.restart
