# SP-002 weak-plane variant: two-type Li4SiO4 bonded sphere compressed by type-3 rigid plates.

echo            both
units           si
atom_style      granular
atom_modify     map array
atom_modify     sort 0 0.0
boundary        f f f
newton          off
communicate     mode single vel yes
hard_particles  yes
soft_particles  yes

variable        dt              equal 5.0e-9
variable        dump_every      equal 1000
variable        nsteps          index 20000
variable        rho             equal 2400.0
variable        young           equal 9.0e10
variable        poisson         equal 0.25
variable        cor             equal 0.3
variable        mu              equal 0.5
variable        top_vz          index -1.0e-4
variable        top_speed       equal abs(${top_vz})

variable        rb_mult         equal 1.0
variable        kn_bond         index 1.0e14
variable        kt_bond         index 5.0e13
variable        sigma_max       index 1.2e8
variable        tau_max         index 1.2e8
variable        sigma_weak      index 6.0e7
variable        tau_weak        index 6.0e7
variable        create_dist     equal 2.00e-4
variable        create_dist_weak index 1.10e-4

region          reg block -0.0012 0.0012 -0.0012 0.0012 -0.0012 0.0012 units box
create_box      3 reg

neighbor        1.0e-4 bin
neigh_modify    delay 0

fix             m1 all property/global youngsModulus peratomtype ${young} ${young} ${young}
fix             m2 all property/global poissonsRatio peratomtype ${poisson} ${poisson} ${poisson}
fix             m3 all property/global coefficientRestitution peratomtypepair 3 &
                ${cor} ${cor} ${cor} &
                ${cor} ${cor} ${cor} &
                ${cor} ${cor} ${cor}
fix             m4 all property/global coefficientFriction peratomtypepair 3 &
                ${mu} ${mu} ${mu} &
                ${mu} ${mu} ${mu} &
                ${mu} ${mu} ${mu}

fix             b1 all property/global radiusMultiplierBond peratomtypepair 3 &
                ${rb_mult} ${rb_mult} ${rb_mult} &
                ${rb_mult} ${rb_mult} ${rb_mult} &
                ${rb_mult} ${rb_mult} ${rb_mult}
fix             b2 all property/global normalBondStiffnessPerUnitArea peratomtypepair 3 &
                ${kn_bond} ${kn_bond} ${kn_bond} &
                ${kn_bond} ${kn_bond} ${kn_bond} &
                ${kn_bond} ${kn_bond} ${kn_bond}
fix             b3 all property/global tangentialBondStiffnessPerUnitArea peratomtypepair 3 &
                ${kt_bond} ${kt_bond} ${kt_bond} &
                ${kt_bond} ${kt_bond} ${kt_bond} &
                ${kt_bond} ${kt_bond} ${kt_bond}
fix             b4 all property/global maxSigmaBond peratomtypepair 3 &
                ${sigma_max} ${sigma_weak} ${sigma_max} &
                ${sigma_weak} ${sigma_max} ${sigma_max} &
                ${sigma_max} ${sigma_max} ${sigma_max}
fix             b5 all property/global maxTauBond peratomtypepair 3 &
                ${tau_max} ${tau_weak} ${tau_max} &
                ${tau_weak} ${tau_max} ${tau_max} &
                ${tau_max} ${tau_max} ${tau_max}
fix             b6 all property/global dampingNormalForceBond peratomtypepair 3 &
                0.0 0.0 0.0 &
                0.0 0.0 0.0 &
                0.0 0.0 0.0
fix             b7 all property/global dampingTangentialForceBond peratomtypepair 3 &
                0.0 0.0 0.0 &
                0.0 0.0 0.0 &
                0.0 0.0 0.0
fix             b8 all property/global dampingNormalTorqueBond peratomtypepair 3 &
                0.0 0.0 0.0 &
                0.0 0.0 0.0 &
                0.0 0.0 0.0
fix             b9 all property/global dampingTangentialTorqueBond peratomtypepair 3 &
                0.0 0.0 0.0 &
                0.0 0.0 0.0 &
                0.0 0.0 0.0
fix             b10 all property/global tsCreateBond scalar 1.0
fix             b11 all property/global createDistanceBond peratomtypepair 3 &
                ${create_dist} ${create_dist_weak} ${create_dist} &
                ${create_dist_weak} ${create_dist} ${create_dist} &
                ${create_dist} ${create_dist} ${create_dist}

pair_style      gran model hertz tangential history cohesion bond stressBreak on createBondAlways off
pair_coeff      * *

fix             clump all particletemplate/multiplespheres 15485863 atom_type 1 &
                density constant ${rho} nspheres 500 ntry 10000000 &
                spheres_different_types file data/li4sio4_sp_500_weakplane.multisphere scale 1.0 bonded yes

create_particles clump single 0.0 0.0 0.0 velocity 0.0 0.0 0.0

fix             mesh_bottom all mesh/surface/stress file meshes/bottom_plate.stl type 3
fix             mesh_top    all mesh/surface/stress file meshes/top_plate.stl    type 3
fix             wall_all all wall/gran model hertz tangential history cohesion bond mesh n_meshes 2 meshes mesh_bottom mesh_top stressBreak on createBondAlways off
fix             move_top all move/mesh mesh mesh_top linear 0.0 0.0 ${top_vz}

fix             integrate all nve/sphere
fix             damp all viscous 0.02
fix             ts all check/timestep/gran ${dump_every} 0.2 0.2

compute         bond_status all bond/counter
compute         bond_force all pair/gran/local/bond
variable        top_disp equal ${top_speed}*time
variable        top_force_z equal f_mesh_top[3]
variable        bottom_force_z equal f_mesh_bottom[3]
variable        compressive_force equal abs(v_top_force_z)
variable        bond_created equal c_bond_status[1]
variable        bond_broken equal c_bond_status[2]
variable        bond_intact equal c_bond_status[3]

thermo_style    custom step atoms ke v_top_disp v_top_force_z v_bottom_force_z v_bond_created v_bond_broken v_bond_intact
thermo          ${dump_every}
thermo_modify   lost ignore norm no

dump            dmp all custom ${dump_every} post/particles_*.dump id type x y z vx vy vz fx fy fz radius
dump            bdmp all local ${dump_every} post/bonds_*.local c_bond_force[7] c_bond_force[8]

timestep        ${dt}
run             ${nsteps}
